sat
(:added-eqs           728
 :binary-propagations 265
 :conflicts           5
 :decisions           9
 :del-clause          30
 :final-checks        1
 :max-memory          51.58
 :memory              17.72
 :minimized-lits      14
 :mk-bool-var         392
 :mk-clause           221
 :mk-clause-binary    314
 :num-allocs          285996
 :num-checks          1
 :propagations        390
 :rlimit-count        33935
 :solve-eqs-elim-vars 4
 :solve-eqs-steps     8
 :time                0.01
 :total-time          0.02)
